Traveling Salesman Problem/TSP_generados/Aleatorio1621103265_7.tsp
NAME: Aleatorio1621103265_7.tsp
COMMENT: Randomly generated scenario
TYPE: TSP
DIMENSION: 7
EDGE_WEIGHT_TYPE: ATT
NODE_COORD_SECTION
1 8.66 3.34
2 16.69 44.82
3 9.65 33.5
4 8.09 4.35
5 10.7 27.38
6 27.15 48.38
7 36.24 24.59
