Traveling Salesman Problem/TSP_generados/Aleatorio1621103265_7.opt.tour
NAME: Aleatorio1621103265_7.opt.tour
COMMENT: Optimal solution for Aleatorio1621103265_7 (115.21077699159663)
TYPE: TOUR
DIMENSION: 7
TOUR_SECTION
1 7 6 2 3 5 4
-1
EOF
